data;


param FN:= 4;
param D:= 100;
param U_Original:=
         1         1        1.790423e+00
         2         1        1.565959e+00
         3         1        1.782965e+00
         4         1        9.113682e-01
         5         1        8.642149e-01
         6         1       -1.809685e+00
         7         1       -1.055700e+00
         8         1        1.112036e+00
         9         1       -1.178425e+00
        10         1        5.419585e-01
        11         1       -9.284852e-01
        12         1        1.126584e+00
        13         1       -7.405548e-01
        14         1        4.293211e-01
        15         1        8.091447e-02
        16         1        1.032881e+00
        17         1       -1.525550e+00
        18         1        1.375187e+00
        19         1        1.776934e+00
        20         1        1.467438e+00
        21         1       -5.551270e-01
        22         1       -3.997546e-01
        23         1        1.182490e+00
        24         1        1.141317e+00
        25         1        2.146318e-01
        26         1        5.886962e-01
        27         1        2.682729e-01
        28         1        3.298085e-01
        29         1       -1.653569e+00
        30         1       -9.046859e-02
        31         1        5.522204e-01
        32         1       -1.436344e+00
        33         1        2.531877e-01
        34         1        2.441924e-01
        35         1        2.963963e-02
        36         1       -3.961548e-01
        37         1       -3.005674e-01
        38         1       -3.847858e-02
        39         1       -2.524861e-01
        40         1        2.484804e+00
        41         1        2.876806e-01
        42         1       -3.764937e-01
        43         1       -1.897609e-01
        44         1        1.723736e+00
        45         1       -1.202990e+00
        46         1       -9.196270e-01
        47         1       -3.198097e-01
        48         1        3.745060e-01
        49         1       -2.619220e-01
        50         1        2.573433e+00
        51         1        5.313239e-01
        52         1        1.028910e+00
        53         1       -8.214127e-01
        54         1        9.082435e-01
        55         1        1.288621e-01
        56         1       -9.883529e-01
        57         1       -5.816575e-01
        58         1       -1.064111e+00
        59         1       -6.590607e-01
        60         1        2.102681e+00
        61         1        2.289492e-01
        62         1        3.118529e-01
        63         1       -2.377355e-01
        64         1        9.413486e-01
        65         1        2.311523e-01
        66         1        1.362903e+00
        67         1       -1.601847e+00
        68         1        6.812738e-01
        69         1        1.431090e+00
        70         1        7.133414e-01
        71         1       -9.468779e-01
        72         1        1.721081e-01
        73         1        2.550909e-01
        74         1       -7.114403e-01
        75         1       -8.690805e-01
        76         1        1.342247e+00
        77         1       -1.746790e+00
        78         1       -6.136480e-01
        79         1       -1.051446e+00
        80         1        4.826395e-01
        81         1        1.231657e-01
        82         1       -7.453621e-01
        83         1       -1.239000e+00
        84         1       -1.263042e+00
        85         1       -6.225106e-01
        86         1        4.194611e-02
        87         1        1.379533e+00
        88         1       -1.066710e-01
        89         1        3.815522e-01
        90         1        6.847605e-01
        91         1       -7.218448e-01
        92         1       -3.379500e-01
        93         1        4.610799e-01
        94         1       -1.109718e+00
        95         1       -1.399408e+00
        96         1       -1.261347e-01
        97         1       -2.272335e+00
        98         1        1.174777e+00
        99         1       -9.525625e-01
       100         1       -1.582167e+00
         1         2        3.154746e-01
         2         2       -5.104843e-01
         3         2        9.771781e-01
         4         2       -8.495741e-01
         5         2       -4.499695e-01
         6         2       -1.695661e+00
         7         2        5.880100e-01
         8         2        6.703316e-01
         9         2       -3.621724e-01
        10         2       -7.159499e-01
        11         2       -7.109353e-01
        12         2        8.841019e-01
        13         2       -4.855852e-01
        14         2        1.690504e+00
        15         2       -4.509745e-01
        16         2       -1.420939e-01
        17         2       -6.836522e-01
        18         2        3.941148e-01
        19         2       -1.411205e+00
        20         2       -3.015298e-01
        21         2        4.445982e-01
        22         2       -9.787954e-02
        23         2        7.994543e-01
        24         2        1.623401e+00
        25         2        5.987588e-01
        26         2        1.423575e+00
        27         2        7.887672e-02
        28         2       -1.604760e+00
        29         2       -2.122157e-01
        30         2        1.604392e+00
        31         2        3.638322e-01
        32         2       -2.035511e+00
        33         2       -1.607765e+00
        34         2       -1.697500e+00
        35         2        1.046552e+00
        36         2        3.497665e-01
        37         2        1.121818e+00
        38         2        4.406195e-01
        39         2       -1.239244e+00
        40         2        2.495910e-01
        41         2        7.651228e-01
        42         2        8.956427e-01
        43         2        1.696233e-01
        44         2       -1.016680e+00
        45         2        4.288110e-01
        46         2        1.349556e+00
        47         2        4.096221e-02
        48         2       -5.415734e-01
        49         2       -2.232468e+00
        50         2        1.113147e+00
        51         2       -3.152046e-01
        52         2        6.975146e-01
        53         2       -3.191228e-01
        54         2       -1.391268e-01
        55         2        2.933192e-01
        56         2        2.344444e+00
        57         2        1.288732e+00
        58         2        5.791797e-01
        59         2        6.004826e-01
        60         2        6.950389e-01
        61         2       -5.084176e-01
        62         2        5.858448e-01
        63         2       -8.097183e-01
        64         2        2.575311e-02
        65         2        3.634629e-02
        66         2       -1.059830e+00
        67         2        5.524510e-01
        68         2        1.653984e-02
        69         2       -5.425014e-01
        70         2        1.527277e+00
        71         2       -9.254038e-01
        72         2       -3.253274e-01
        73         2       -3.896690e-02
        74         2        4.863154e-01
        75         2       -4.244212e-01
        76         2       -8.278094e-01
        77         2        1.233662e+00
        78         2        1.559348e-01
        79         2       -2.339656e-01
        80         2        1.080721e+00
        81         2       -1.010316e+00
        82         2       -2.023354e+00
        83         2        2.374138e-01
        84         2        3.737325e-01
        85         2        1.085417e-01
        86         2       -4.873325e-01
        87         2       -2.916071e-01
        88         2       -1.303821e+00
        89         2        6.459534e-01
        90         2       -1.497765e+00
        91         2       -1.282395e+00
        92         2       -4.050806e-01
        93         2        2.060848e-01
        94         2       -1.648089e-01
        95         2        1.934435e-01
        96         2        1.354760e+00
        97         2       -8.534949e-01
        98         2       -2.762336e-01
        99         2        3.121764e-01
       100         2        6.910887e-01
         1         3        2.398866e-01
         2         3       -1.487328e+00
         3         3       -4.739142e-01
         4         3        1.051801e+00
         5         3        2.645067e-01
         6         3       -2.072841e-01
         7         3       -5.716711e-01
         8         3        3.133803e-01
         9         3        1.649548e-02
        10         3       -1.313948e+00
        11         3        5.368778e-01
        12         3       -1.139113e+00
        13         3       -1.877632e-01
        14         3        9.282864e-01
        15         3        1.367847e-01
        16         3        2.931213e-01
        17         3       -1.048229e-01
        18         3        6.014093e-01
        19         3        3.973062e-01
        20         3       -7.931258e-02
        21         3       -8.555389e-01
        22         3        1.349385e+00
        23         3       -8.810088e-03
        24         3        2.402762e+00
        25         3        6.860735e-01
        26         3       -1.992814e-01
        27         3       -4.740997e-01
        28         3       -9.028889e-01
        29         3       -2.276464e-01
        30         3        1.426726e+00
        31         3        5.908334e-02
        32         3        1.513225e+00
        33         3        2.254381e-01
        34         3        8.027883e-01
        35         3       -2.645847e+00
        36         3        1.374898e+00
        37         3        1.494658e+00
        38         3       -2.286416e-01
        39         3       -4.383467e-01
        40         3       -2.035156e-01
        41         3       -6.380513e-01
        42         3        1.396781e-01
        43         3       -5.318295e-01
        44         3       -3.886611e+00
        45         3        1.364736e+00
        46         3        8.844248e-01
        47         3       -7.175996e-01
        48         3        7.042258e-01
        49         3       -1.123064e+00
        50         3        4.711894e-02
        51         3       -2.708674e-01
        52         3       -2.865289e-01
        53         3       -7.877529e-01
        54         3       -1.645196e-01
        55         3       -6.057411e-02
        56         3       -9.863904e-01
        57         3        2.365934e-01
        58         3       -1.423011e+00
        59         3        1.026252e+00
        60         3        5.604366e-02
        61         3       -1.039053e+00
        62         3       -5.050371e-01
        63         3        1.792604e+00
        64         3       -7.941141e-01
        65         3       -1.453486e+00
        66         3        1.303654e-01
        67         3       -1.032396e+00
        68         3       -3.021900e-01
        69         3        9.280325e-01
        70         3       -4.950803e-02
        71         3        7.978150e-01
        72         3        2.393566e+00
        73         3        4.846690e-02
        74         3        7.836029e-01
        75         3        9.213611e-01
        76         3       -1.577547e+00
        77         3       -1.813261e+00
        78         3       -1.680371e-02
        79         3        3.880105e-01
        80         3        5.007886e-01
        81         3       -1.988425e+00
        82         3       -9.765460e-01
        83         3       -5.888312e-01
        84         3       -7.346029e-01
        85         3       -3.452019e-01
        86         3       -2.641862e-01
        87         3       -8.471052e-01
        88         3       -2.575761e+00
        89         3        1.380238e+00
        90         3        9.120924e-01
        91         3        7.355838e-01
        92         3        1.145779e+00
        93         3        2.349819e-02
        94         3       -9.192263e-01
        95         3        7.142325e-01
        96         3       -1.510554e+00
        97         3        7.356706e-01
        98         3        3.749301e-01
        99         3       -5.598547e-01
       100         3       -1.174176e+00
         1         4        1.253570e-02
         2         4       -7.725016e-02
         3         4        4.106550e-01
         4         4       -4.834698e-01
         5         4        4.729790e-01
         6         4       -1.178395e+00
         7         4       -7.771025e-01
         8         4        1.924714e-01
         9         4       -5.580217e-01
        10         4        3.661944e-01
        11         4       -1.213473e+00
        12         4        6.014976e-01
        13         4        1.574196e-01
        14         4        5.747874e-01
        15         4        2.291562e+00
        16         4       -7.556649e-01
        17         4        5.708666e-01
        18         4        4.233081e-01
        19         4       -9.359194e-02
        20         4       -4.632354e-02
        21         4       -2.304093e-01
        22         4        3.889905e-01
        23         4       -2.355848e-01
        24         4        9.739509e-02
        25         4       -6.184361e-01
        26         4       -1.839824e+00
        27         4        7.444816e-01
        28         4       -3.136163e-01
        29         4       -6.332965e-01
        30         4       -1.610069e-01
        31         4       -1.132272e+00
        32         4       -2.996377e-01
        33         4       -7.193267e-01
        34         4       -1.379879e+00
        35         4        1.389733e+00
        36         4        4.085371e-01
        37         4       -2.518575e-02
        38         4        1.624169e-01
        39         4        3.406871e-01
        40         4       -7.960675e-01
        41         4        5.434581e-02
        42         4       -5.499782e-01
        43         4        6.683411e-01
        44         4       -2.095182e+00
        45         4       -8.745820e-01
        46         4        1.290652e+00
        47         4        1.371058e-01
        48         4        5.948290e-01
        49         4        6.721660e-01
        50         4        1.347859e+00
        51         4       -1.231668e+00
        52         4       -5.458112e-01
        53         4       -3.473994e-01
        54         4        2.985941e+00
        55         4       -1.211133e+00
        56         4       -3.528277e-01
        57         4       -1.787517e+00
        58         4        4.766464e-01
        59         4       -2.798306e-01
        60         4       -6.600427e-01
        61         4        1.106759e+00
        62         4       -1.257526e-02
        63         4       -1.018806e+00
        64         4       -1.985972e-01
        65         4       -2.296990e+00
        66         4        9.544806e-01
        67         4        1.135179e+00
        68         4        1.898865e-01
        69         4       -7.583446e-01
        70         4       -6.851640e-01
        71         4        1.023435e+00
        72         4       -1.131536e+00
        73         4       -1.426991e+00
        74         4        1.960019e+00
        75         4        6.393628e-01
        76         4       -1.007952e+00
        77         4        1.229123e+00
        78         4       -6.750552e-01
        79         4       -1.110154e+00
        80         4        4.112348e-01
        81         4       -2.207430e+00
        82         4       -3.868624e-01
        83         4        1.013447e-01
        84         4       -9.262495e-02
        85         4        9.067415e-01
        86         4        4.880899e-01
        87         4       -1.988828e+00
        88         4        1.791455e-02
        89         4        1.768214e+00
        90         4        1.081005e+00
        91         4       -5.011252e-01
        92         4       -2.927545e-01
        93         4        8.280791e-01
        94         4        3.647162e-01
        95         4        1.159815e+00
        96         4        1.846692e-01
        97         4        8.395434e-01
        98         4        1.711409e+00
        99         4        4.648138e-01
       100         4       -9.667023e-01
         1         5       -9.617508e-01
         2         5       -1.021464e-01
         3         5       -1.281808e-01
         4         5        1.829070e-01
         5         5        3.896573e-01
         6         5       -2.259374e-01
         7         5       -6.673285e-01
         8         5       -2.398616e+00
         9         5        7.350405e-01
        10         5       -1.396237e+00
        11         5        1.827823e-01
        12         5        1.478963e+00
        13         5        3.758235e-01
        14         5       -1.939682e+00
        15         5        1.358712e-01
        16         5        1.498062e+00
        17         5        4.066115e-01
        18         5       -1.914991e-01
        19         5       -2.825226e-01
        20         5       -3.267345e-01
        21         5       -8.088767e-02
        22         5       -1.675229e-01
        23         5       -8.401856e-01
        24         5       -1.389709e+00
        25         5       -6.288027e-01
        26         5       -1.317295e+00
        27         5        3.501751e-01
        28         5       -1.003785e+00
        29         5        5.889955e-01
        30         5        9.262657e-02
        31         5       -2.586866e-01
        32         5        8.774326e-01
        33         5       -1.132771e+00
        34         5       -2.414255e+00
        35         5       -9.194577e-01
        36         5       -3.387249e-01
        37         5       -1.883545e+00
        38         5       -1.158942e-01
        39         5        5.973969e-01
        40         5        8.559324e-01
        41         5       -1.998103e+00
        42         5       -1.174363e-01
        43         5        2.156580e+00
        44         5       -1.360513e+00
        45         5       -1.077130e+00
        46         5       -4.427675e-01
        47         5        1.794740e-01
        48         5       -1.248518e+00
        49         5        2.378419e+00
        50         5       -9.674091e-01
        51         5       -5.385386e-01
        52         5       -2.752306e-01
        53         5        6.725762e-01
        54         5       -7.876335e-01
        55         5       -1.295064e-01
        56         5       -2.248223e-02
        57         5       -2.380264e-02
        58         5       -2.964517e-01
        59         5        7.576348e-01
        60         5       -1.550109e-01
        61         5        1.708757e+00
        62         5       -1.138603e+00
        63         5        3.106486e-01
        64         5        6.235893e-01
        65         5        1.580520e-01
        66         5        1.487306e+00
        67         5        4.104866e-01
        68         5        2.939327e-01
        69         5       -5.908524e-01
        70         5       -3.478255e-01
        71         5       -2.432634e-01
        72         5       -1.144056e+00
        73         5       -2.709488e-01
        74         5       -1.031441e-01
        75         5        2.498587e-01
        76         5       -3.164990e-01
        77         5       -1.296377e-01
        78         5       -2.164664e-01
        79         5        5.350886e-01
        80         5       -6.169327e-01
        81         5       -6.490066e-02
        82         5       -3.107783e-01
        83         5       -5.956177e-01
        84         5        7.045520e-01
        85         5       -3.680382e-02
        86         5        4.698541e-01
        87         5       -2.823269e-01
        88         5       -8.207821e-01
        89         5       -2.175678e+00
        90         5       -7.473919e-01
        91         5       -8.632920e-01
        92         5       -3.206300e-02
        93         5        2.094398e+00
        94         5       -1.284484e+00
        95         5       -3.982966e-01
        96         5       -3.435270e-01
        97         5       -5.242326e-01
        98         5       -5.918667e-01
        99         5       -8.677076e-01
       100         5        1.280045e+00
;
param X_Original:=
    1       -4.111207e-03
    2       -3.642277e-01
    3       -3.481811e-01
    4        2.343245e+00
    5       -1.389424e+00
    6        8.062228e-01
    7        2.511525e-01
    8       -2.090834e-02
    9       -4.665404e-01
   10       -7.893156e-01
   11        1.342360e+00
   12        2.611718e+00
   13        1.857825e+00
   14        1.163081e+00
   15       -2.387927e-01
   16        5.075030e-01
   17        3.016264e-02
   18       -1.143061e+00
   19       -3.454413e-01
   20       -7.665024e-01
   21        3.642407e-01
   22        1.310926e+00
   23       -7.592335e-01
   24        1.472100e+00
   25       -7.158470e-01
   26        4.770546e-01
   27        1.638357e-01
   28        3.394972e-01
   29       -6.191685e-01
   30        2.142368e+00
   31        4.668416e-02
   32        5.242258e-01
   33       -2.484770e+00
   34       -3.307923e+00
   35        7.721116e-01
   36        1.550915e-01
   37        1.410741e+00
   38       -4.403888e-01
   39        2.029000e+00
   40       -4.435547e-01
   41        1.965417e+00
   42        4.489796e-01
   43       -1.671031e+00
   44       -1.508308e+00
   45       -9.039987e-01
   46        6.271108e-01
   47       -4.007659e-01
   48        6.215018e-01
   49       -6.917753e-01
   50        7.401278e-01
   51        7.234179e-01
   52       -2.432540e-02
   53        2.562344e-01
   54        6.155018e-01
   55       -3.352861e+00
   56       -2.716861e-01
   57        5.477632e-01
   58        1.004899e+00
   59        6.888850e-01
   60       -2.704192e-01
   61        2.777045e-01
   62       -7.831834e-01
   63       -4.642109e-01
   64       -7.344427e-01
   65       -3.048748e+00
   66       -4.199481e-01
   67        1.016758e+00
   68       -8.151723e-02
   69       -6.604313e-01
   70       -3.069639e+00
   71       -1.680882e+00
   72        3.485911e-01
   73       -7.207059e-01
   74       -7.680882e-01
   75       -3.575098e-01
   76       -3.006107e-01
   77        3.267763e-01
   78        9.871193e-01
   79        1.384025e-01
   80        1.490984e+00
   81        2.635020e-01
   82       -1.252784e+00
   83        8.490845e-01
   84        1.597793e+00
   85       -1.234412e+00
   86       -6.076701e-01
   87       -1.073630e+00
   88        1.502016e+00
   89       -4.487418e-02
   90       -9.164888e-01
   91        6.685061e-01
   92       -8.722832e-01
   93       -4.981974e-01
   94       -1.451238e+00
   95        1.922455e-01
   96       -6.904434e-01
   97        7.204083e-01
   98       -9.972851e-01
   99        6.283453e-01
  100       -3.201026e-01
;
param outliervec_original :=
    1    0
    2    1
    3    1
    4    1
    5    1
    6    1
    7    1
    8    1
    9    0
   10    1
   11    1
   12    1
   13    1
   14    1
   15    1
   16    1
   17    1
   18    1
   19    1
   20    0
   21    1
   22    1
   23    1
   24    1
   25    1
   26    1
   27    1
   28    1
   29    0
   30    0
   31    1
   32    1
   33    0
   34    0
   35    1
   36    1
   37    0
   38    1
   39    1
   40    1
   41    1
   42    0
   43    1
   44    1
   45    1
   46    1
   47    1
   48    1
   49    1
   50    1
   51    1
   52    1
   53    1
   54    1
   55    1
   56    1
   57    1
   58    0
   59    1
   60    1
   61    0
   62    1
   63    1
   64    0
   65    0
   66    1
   67    1
   68    1
   69    1
   70    1
   71    1
   72    1
   73    1
   74    1
   75    1
   76    1
   77    1
   78    1
   79    1
   80    0
   81    1
   82    1
   83    1
   84    1
   85    1
   86    1
   87    1
   88    1
   89    1
   90    1
   91    1
   92    1
   93    1
   94    1
   95    1
   96    1
   97    1
   98    1
   99    1
  100    0
;
param d:= 57;
param r:=5;
param p:=0.840000;
param M:=1000;
param U:=
         1         1        1.790423e+00
         2         1        1.565959e+00
         3         1       -1.055700e+00
         4         1        1.112036e+00
         5         1       -1.178425e+00
         6         1        5.419585e-01
         7         1        1.126584e+00
         8         1        4.293211e-01
         9         1        8.091447e-02
        10         1        1.032881e+00
        11         1       -1.525550e+00
        12         1        1.467438e+00
        13         1       -5.551270e-01
        14         1        1.141317e+00
        15         1        5.886962e-01
        16         1        2.682729e-01
        17         1       -1.653569e+00
        18         1       -9.046859e-02
        19         1        5.522204e-01
        20         1        2.531877e-01
        21         1        2.441924e-01
        22         1        2.963963e-02
        23         1       -3.961548e-01
        24         1       -3.764937e-01
        25         1        1.723736e+00
        26         1       -1.202990e+00
        27         1       -9.196270e-01
        28         1       -3.198097e-01
        29         1       -2.619220e-01
        30         1        2.573433e+00
        31         1        1.028910e+00
        32         1       -8.214127e-01
        33         1        9.082435e-01
        34         1       -5.816575e-01
        35         1       -1.064111e+00
        36         1       -6.590607e-01
        37         1        2.289492e-01
        38         1       -2.377355e-01
        39         1        1.362903e+00
        40         1       -1.601847e+00
        41         1        6.812738e-01
        42         1        1.431090e+00
        43         1       -9.468779e-01
        44         1        2.550909e-01
        45         1       -8.690805e-01
        46         1        1.342247e+00
        47         1       -1.051446e+00
        48         1        4.826395e-01
        49         1       -1.263042e+00
        50         1        4.194611e-02
        51         1        1.379533e+00
        52         1        3.815522e-01
        53         1       -3.379500e-01
        54         1       -1.109718e+00
        55         1       -1.399408e+00
        56         1        1.174777e+00
        57         1       -9.525625e-01
         1         2        3.154746e-01
         2         2       -5.104843e-01
         3         2        5.880100e-01
         4         2        6.703316e-01
         5         2       -3.621724e-01
         6         2       -7.159499e-01
         7         2        8.841019e-01
         8         2        1.690504e+00
         9         2       -4.509745e-01
        10         2       -1.420939e-01
        11         2       -6.836522e-01
        12         2       -3.015298e-01
        13         2        4.445982e-01
        14         2        1.623401e+00
        15         2        1.423575e+00
        16         2        7.887672e-02
        17         2       -2.122157e-01
        18         2        1.604392e+00
        19         2        3.638322e-01
        20         2       -1.607765e+00
        21         2       -1.697500e+00
        22         2        1.046552e+00
        23         2        3.497665e-01
        24         2        8.956427e-01
        25         2       -1.016680e+00
        26         2        4.288110e-01
        27         2        1.349556e+00
        28         2        4.096221e-02
        29         2       -2.232468e+00
        30         2        1.113147e+00
        31         2        6.975146e-01
        32         2       -3.191228e-01
        33         2       -1.391268e-01
        34         2        1.288732e+00
        35         2        5.791797e-01
        36         2        6.004826e-01
        37         2       -5.084176e-01
        38         2       -8.097183e-01
        39         2       -1.059830e+00
        40         2        5.524510e-01
        41         2        1.653984e-02
        42         2       -5.425014e-01
        43         2       -9.254038e-01
        44         2       -3.896690e-02
        45         2       -4.244212e-01
        46         2       -8.278094e-01
        47         2       -2.339656e-01
        48         2        1.080721e+00
        49         2        3.737325e-01
        50         2       -4.873325e-01
        51         2       -2.916071e-01
        52         2        6.459534e-01
        53         2       -4.050806e-01
        54         2       -1.648089e-01
        55         2        1.934435e-01
        56         2       -2.762336e-01
        57         2        3.121764e-01
         1         3        2.398866e-01
         2         3       -1.487328e+00
         3         3       -5.716711e-01
         4         3        3.133803e-01
         5         3        1.649548e-02
         6         3       -1.313948e+00
         7         3       -1.139113e+00
         8         3        9.282864e-01
         9         3        1.367847e-01
        10         3        2.931213e-01
        11         3       -1.048229e-01
        12         3       -7.931258e-02
        13         3       -8.555389e-01
        14         3        2.402762e+00
        15         3       -1.992814e-01
        16         3       -4.740997e-01
        17         3       -2.276464e-01
        18         3        1.426726e+00
        19         3        5.908334e-02
        20         3        2.254381e-01
        21         3        8.027883e-01
        22         3       -2.645847e+00
        23         3        1.374898e+00
        24         3        1.396781e-01
        25         3       -3.886611e+00
        26         3        1.364736e+00
        27         3        8.844248e-01
        28         3       -7.175996e-01
        29         3       -1.123064e+00
        30         3        4.711894e-02
        31         3       -2.865289e-01
        32         3       -7.877529e-01
        33         3       -1.645196e-01
        34         3        2.365934e-01
        35         3       -1.423011e+00
        36         3        1.026252e+00
        37         3       -1.039053e+00
        38         3        1.792604e+00
        39         3        1.303654e-01
        40         3       -1.032396e+00
        41         3       -3.021900e-01
        42         3        9.280325e-01
        43         3        7.978150e-01
        44         3        4.846690e-02
        45         3        9.213611e-01
        46         3       -1.577547e+00
        47         3        3.880105e-01
        48         3        5.007886e-01
        49         3       -7.346029e-01
        50         3       -2.641862e-01
        51         3       -8.471052e-01
        52         3        1.380238e+00
        53         3        1.145779e+00
        54         3       -9.192263e-01
        55         3        7.142325e-01
        56         3        3.749301e-01
        57         3       -5.598547e-01
         1         4        1.253570e-02
         2         4       -7.725016e-02
         3         4       -7.771025e-01
         4         4        1.924714e-01
         5         4       -5.580217e-01
         6         4        3.661944e-01
         7         4        6.014976e-01
         8         4        5.747874e-01
         9         4        2.291562e+00
        10         4       -7.556649e-01
        11         4        5.708666e-01
        12         4       -4.632354e-02
        13         4       -2.304093e-01
        14         4        9.739509e-02
        15         4       -1.839824e+00
        16         4        7.444816e-01
        17         4       -6.332965e-01
        18         4       -1.610069e-01
        19         4       -1.132272e+00
        20         4       -7.193267e-01
        21         4       -1.379879e+00
        22         4        1.389733e+00
        23         4        4.085371e-01
        24         4       -5.499782e-01
        25         4       -2.095182e+00
        26         4       -8.745820e-01
        27         4        1.290652e+00
        28         4        1.371058e-01
        29         4        6.721660e-01
        30         4        1.347859e+00
        31         4       -5.458112e-01
        32         4       -3.473994e-01
        33         4        2.985941e+00
        34         4       -1.787517e+00
        35         4        4.766464e-01
        36         4       -2.798306e-01
        37         4        1.106759e+00
        38         4       -1.018806e+00
        39         4        9.544806e-01
        40         4        1.135179e+00
        41         4        1.898865e-01
        42         4       -7.583446e-01
        43         4        1.023435e+00
        44         4       -1.426991e+00
        45         4        6.393628e-01
        46         4       -1.007952e+00
        47         4       -1.110154e+00
        48         4        4.112348e-01
        49         4       -9.262495e-02
        50         4        4.880899e-01
        51         4       -1.988828e+00
        52         4        1.768214e+00
        53         4       -2.927545e-01
        54         4        3.647162e-01
        55         4        1.159815e+00
        56         4        1.711409e+00
        57         4        4.648138e-01
         1         5       -9.617508e-01
         2         5       -1.021464e-01
         3         5       -6.673285e-01
         4         5       -2.398616e+00
         5         5        7.350405e-01
         6         5       -1.396237e+00
         7         5        1.478963e+00
         8         5       -1.939682e+00
         9         5        1.358712e-01
        10         5        1.498062e+00
        11         5        4.066115e-01
        12         5       -3.267345e-01
        13         5       -8.088767e-02
        14         5       -1.389709e+00
        15         5       -1.317295e+00
        16         5        3.501751e-01
        17         5        5.889955e-01
        18         5        9.262657e-02
        19         5       -2.586866e-01
        20         5       -1.132771e+00
        21         5       -2.414255e+00
        22         5       -9.194577e-01
        23         5       -3.387249e-01
        24         5       -1.174363e-01
        25         5       -1.360513e+00
        26         5       -1.077130e+00
        27         5       -4.427675e-01
        28         5        1.794740e-01
        29         5        2.378419e+00
        30         5       -9.674091e-01
        31         5       -2.752306e-01
        32         5        6.725762e-01
        33         5       -7.876335e-01
        34         5       -2.380264e-02
        35         5       -2.964517e-01
        36         5        7.576348e-01
        37         5        1.708757e+00
        38         5        3.106486e-01
        39         5        1.487306e+00
        40         5        4.104866e-01
        41         5        2.939327e-01
        42         5       -5.908524e-01
        43         5       -2.432634e-01
        44         5       -2.709488e-01
        45         5        2.498587e-01
        46         5       -3.164990e-01
        47         5        5.350886e-01
        48         5       -6.169327e-01
        49         5        7.045520e-01
        50         5        4.698541e-01
        51         5       -2.823269e-01
        52         5       -2.175678e+00
        53         5       -3.206300e-02
        54         5       -1.284484e+00
        55         5       -3.982966e-01
        56         5       -5.918667e-01
        57         5       -8.677076e-01
;

param theta:=
    1       -2.570398e-01
    2        9.562462e-01
    3        3.813877e-01
    4        1.073750e+00
    5        1.336619e-01
;
param X_true:=
    1       -4.111207e-03
    2       -1.577687e+00
    3       -5.027185e-01
    4        4.124400e-01
    5       -4.665404e-01
    6       -1.155427e+00
    7        9.132807e-01
    8        2.377477e+00
    9        2.032442e+00
   10       -7.675973e-01
   11        4.120980e-01
   12       -7.665024e-01
   13       -9.172005e-02
   14        2.054633e+00
   15       -7.753164e-01
   16        6.431572e-01
   17       -6.191685e-01
   18        2.142368e+00
   19       -9.371182e-01
   20       -2.484770e+00
   21       -3.307923e+00
   22        1.379230e+00
   23        1.422255e+00
   24        4.489796e-01
   25       -5.222695e+00
   26        3.575013e-01
   27        3.379799e+00
   28        8.356319e-02
   29       -1.503740e+00
   30        1.687026e+00
   31       -5.512414e-01
   32       -6.960550e-01
   33        2.705778e+00
   34       -3.263026e-01
   35        1.004899e+00
   36        1.062395e+00
   37        2.777045e-01
   38       -1.174290e+00
   39       -9.394064e-02
   40        1.856068e+00
   41        1.369728e-02
   42       -1.492958e+00
   43        8.431503e-01
   44       -1.675594e+00
   45        1.042037e+00
   46       -2.723122e+00
   47       -9.525023e-01
   48        1.490984e+00
   49        4.725569e-01
   50        1.538643e-01
   51       -3.043741e+00
   52        2.719845e+00
   53       -1.155876e-02
   54        1.874212e-02
   55        2.113781e+00
   56        1.203638e+00
   57        6.950978e-01
;
param X:=
    1       -4.111207e-03
    2       -3.642277e-01
    3        2.511525e-01
    4       -2.090834e-02
    5       -4.665404e-01
    6       -7.893156e-01
    7        2.611718e+00
    8        1.163081e+00
    9       -2.387927e-01
   10        5.075030e-01
   11        3.016264e-02
   12       -7.665024e-01
   13        3.642407e-01
   14        1.472100e+00
   15        4.770546e-01
   16        1.638357e-01
   17       -6.191685e-01
   18        2.142368e+00
   19        4.668416e-02
   20       -2.484770e+00
   21       -3.307923e+00
   22        7.721116e-01
   23        1.550915e-01
   24        4.489796e-01
   25       -1.508308e+00
   26       -9.039987e-01
   27        6.271108e-01
   28       -4.007659e-01
   29       -6.917753e-01
   30        7.401278e-01
   31       -2.432540e-02
   32        2.562344e-01
   33        6.155018e-01
   34        5.477632e-01
   35        1.004899e+00
   36        6.888850e-01
   37        2.777045e-01
   38       -4.642109e-01
   39       -4.199481e-01
   40        1.016758e+00
   41       -8.151723e-02
   42       -6.604313e-01
   43       -1.680882e+00
   44       -7.207059e-01
   45       -3.575098e-01
   46       -3.006107e-01
   47        1.384025e-01
   48        1.490984e+00
   49        1.597793e+00
   50       -6.076701e-01
   51       -1.073630e+00
   52       -4.487418e-02
   53       -8.722832e-01
   54       -1.451238e+00
   55        1.922455e-01
   56       -9.972851e-01
   57        6.283453e-01
;
param outliervec:=
    1    0
    2    1
    3    1
    4    1
    5    0
    6    1
    7    1
    8    1
    9    1
   10    1
   11    1
   12    0
   13    1
   14    1
   15    1
   16    1
   17    0
   18    0
   19    1
   20    0
   21    0
   22    1
   23    1
   24    0
   25    1
   26    1
   27    1
   28    1
   29    1
   30    1
   31    1
   32    1
   33    1
   34    1
   35    0
   36    1
   37    0
   38    1
   39    1
   40    1
   41    1
   42    1
   43    1
   44    1
   45    1
   46    1
   47    1
   48    0
   49    1
   50    1
   51    1
   52    1
   53    1
   54    1
   55    1
   56    1
   57    1
; 
param greedy_time :=         6.023818e-01
;